1111111 AB
390 420 450 480 510 540 570 600 630 660 690 720 750 780 810 840 870 900 930 960 990 1020 1050 1080 1110 1140 1170 1200 1230
1111111 BA
404 438 468 498 528 558 588 618 648 678 708 738 768 798 828 858 888 918 948 978 1008 1041 1071 1101 1131 1161 1191 1214 1244
